Name: Chelidonin
Synon: (+)-Chelidonine
Synon: [1,3]Benzodioxolo[5,6-c]-1,3-dioxolo[4,5-i]phenanthridin-6-ol, 5b,6,7,12b,13,14-hexahydro-13-methyl-, (5bR,6S,12bS)-
Synon: $:00in-source
DB#: SMI00001
InChIKey: GHKISGDRQRSCII-ZOCIIQOWSA-N
InChI: InChI=1S/C20H19NO5/c1-21-7-13-11(2-3-15-20(13)26-9-23-15)18-14(22)4-10-5-16-17(25-8-24-16)6-12(10)19(18)21/h2-3,5-6,14,18-19,22H,4,7-9H2,1H3/t14-,18-,19+/m0/s1
Precursor_type: [M+H]+
Spectrum_type: MS2
PrecursorMZ: 354.1345
Instrument_type: LC-ESI-QTOF
Instrument: Bruker micrOTOF-Q
Ion_mode: P
Collision_energy: 15 eV
Formula: C20H19NO5
MW: 353
ExactMass: 353.126322708
Comments: "SMILES=CN1CC2=C(C=CC3=C2OCO3)[C@@H]4[C@H]1C5=CC6=C(C=C5C[C@@H]4O)OCO6" "cas=476-32-4" "chemspider=171216" "pubchem cid=197810" "InChI=InChI=1S/C20H19NO5/c1-21-7-13-11(2-3-15-20(13)26-9-23-15)18-14(22)4-10-5-16-17(25-8-24-16)6-12(10)19(18)21/h2-3,5-6,14,18-19,22H,4,7-9H2,1H3/t14-,18-,19+/m0/s1" "computed SMILES=OC1CC2=CC=3OCOC3C=C2C4N(C)CC5=C6OCOC6=CC=C5C14" "accession=SMI00001" "date=2012.08.31 (Created 2012.08.31)" "author=S. Neumann: IPB-Halle, Germany & E. Schymanski: Eawag, Switzerland" "license=CC BY" "copyright=CASMI2012" "publication=Schymanski, E.; Neumann, S. The Critical Assessment of Small Molecule Identification (CASMI): Challenges and Solutions. Metabolites 2013, 3 (3), 517â€“38. DOI:10.3390/metabo3030517" "comment=http://casmi-contest.org/examples.shtml" "comment=CASMI2012 Example 1" "exact mass=353.126323" "ionization=ESI" "resolution=12000" "column=Waters Acquity" "flow gradient=water/acetonitrile, 20 min" "retention time=319.5 sec" "computed spectral entropy=2.3306114256555763" "computed normalized entropy=0.6020383387709932" "computed mass accuracy=2.5450556216276627" "computed mass error=9.012920000373015E-4" "SPLASH=splash10-0zfr-0029000000-56cd613ed65d5ccc0fc2" "submitter=CASMI Team (UFZ, Eawag)" "MoNA Rating=5.0"
Num Peaks: 48
135.044090 1.001001
161.059417 0.500501
163.037921 0.600601
173.058985 0.200200
176.069933 0.200200
188.069476 0.100100
217.064262 0.200200
235.074687 0.100100
237.088827 0.200200
245.058738 0.200200
247.074622 4.604605
248.077730 0.700701
249.084970 0.100100
263.069442 0.200200
265.084928 1.101101
266.086344 0.200200
267.066777 0.200200
275.069243 48.948949
276.072457 8.708709
277.075843 1.001001
278.078822 0.100100
279.064367 0.200200
293.079939 1.901902
294.082997 0.300300
295.095169 7.107107
296.098408 1.201201
297.100602 0.100100
303.063770 1.501502
304.067777 0.300300
305.079460 39.439439
306.083071 7.607608
307.089209 1.401401
308.094266 0.200200
323.089931 36.836837
324.093193 6.906907
325.096267 1.001001
326.099525 0.100100
334.105573 1.001001
335.108811 0.200200
336.121034 8.108108
337.124388 1.701702
338.127519 0.200200
352.116235 5.105105
353.119072 1.201201
354.132312 100.000000
355.135060 20.820821
356.137434 2.702703
357.140093 0.300300


Name: Kanamycin A
Synon: $:00in-source
DB#: SMI00011
InChIKey: SBUJHOSQTJFQJX-NOAMYHISSA-N
InChI: InChI=1S/C18H36N4O11/c19-2-6-10(25)12(27)13(28)18(30-6)33-16-5(21)1-4(20)15(14(16)29)32-17-11(26)8(22)9(24)7(3-23)31-17/h4-18,23-29H,1-3,19-22H2/t4-,5+,6-,7-,8+,9-,10-,11-,12+,13-,14-,15+,16-,17-,18-/m1/s1
Precursor_type: [M+H]+
Spectrum_type: MS2
PrecursorMZ: 485.245
Instrument_type: LC-ESI-QTOF
Instrument: Bruker micrOTOF-Q
Ion_mode: P
Collision_energy: 10 eV
Formula: C18H36N4O11
MW: 484
ExactMass: 484.238057972
Comments: "SMILES=C1[C@H]([C@@H]([C@H]([C@@H]([C@H]1N)O[C@@H]2[C@@H]([C@H]([C@@H]([C@H](O2)CN)O)O)O)O)O[C@@H]3[C@@H]([C@H]([C@@H]([C@H](O3)CO)O)N)O)N" "pubchem cid=6032" "chemspider=5810" "InChI=InChI=1S/C18H36N4O11/c19-2-6-10(25)12(27)13(28)18(30-6)33-16-5(21)1-4(20)15(14(16)29)32-17-11(26)8(22)9(24)7(3-23)31-17/h4-18,23-29H,1-3,19-22H2/t4-,5+,6-,7-,8+,9-,10-,11-,12+,13-,14-,15+,16-,17-,18-/m1/s1" "computed SMILES=OCC1OC(OC2C(O)C(OC3OC(CN)C(O)C(O)C3O)C(N)CC2N)C(O)C(N)C1O" "accession=SMI00011" "date=2012.08.31 (Created 2012.08.31)" "author=S. Neumann: IPB-Halle, Germany & E. Schymanski: Eawag, Switzerland" "license=CC BY" "copyright=CASMI2012" "publication=Schymanski, E.; Neumann, S. The Critical Assessment of Small Molecule Identification (CASMI): Challenges and Solutions. Metabolites 2013, 3 (3), 517â€“38. DOI:10.3390/metabo3030517" "comment=http://casmi-contest.org/challenges-cat1-2.shtml" "comment=CASMI2012 LC Challenge 1" "exact mass=484.238" "ionization=ESI" "resolution=12000" "column=Waters Acquity" "flow gradient=water/acetonitrile" "retention time=22 sec" "computed spectral entropy=2.0404078690066387" "computed normalized entropy=0.6929699964725609" "computed mass accuracy=0.6882543868858682" "computed mass error=-3.3397199996443305E-4" "SPLASH=splash10-0229-0829000000-78bb959489d1e9f9158e" "submitter=CASMI Team (UFZ, Eawag)" "MoNA Rating=5.0"
Num Peaks: 19
115.039358 4.841709
126.054771 1.953541
127.040288 1.269306
144.065103 22.018246
145.066736 2.041550
162.076100 40.180232
163.106634 39.712919
164.109231 3.150953
205.119124 14.056573
206.121712 1.359794
243.127800 14.418524
243.629221 3.262513
288.154897 0.867690
306.163434 0.769765
324.177677 100.000000
325.180693 15.345712
326.182655 2.785284
348.178211 0.989166
366.185665 1.317649


Name: Kanamycin A
Synon: $:00in-source
DB#: SMI00012
InChIKey: SBUJHOSQTJFQJX-NOAMYHISSA-N
InChI: InChI=1S/C18H36N4O11/c19-2-6-10(25)12(27)13(28)18(30-6)33-16-5(21)1-4(20)15(14(16)29)32-17-11(26)8(22)9(24)7(3-23)31-17/h4-18,23-29H,1-3,19-22H2/t4-,5+,6-,7-,8+,9-,10-,11-,12+,13-,14-,15+,16-,17-,18-/m1/s1
Precursor_type: [M+H]+
Spectrum_type: MS2
PrecursorMZ: 485.245
Instrument_type: LC-ESI-QTOF
Instrument: Bruker micrOTOF-Q
Ion_mode: P
Collision_energy: 20 eV
Formula: C18H36N4O11
MW: 484
ExactMass: 484.238057972
Comments: "SMILES=C1[C@H]([C@@H]([C@H]([C@@H]([C@H]1N)O[C@@H]2[C@@H]([C@H]([C@@H]([C@H](O2)CN)O)O)O)O)O[C@@H]3[C@@H]([C@H]([C@@H]([C@H](O3)CO)O)N)O)N" "pubchem cid=6032" "chemspider=5810" "InChI=InChI=1S/C18H36N4O11/c19-2-6-10(25)12(27)13(28)18(30-6)33-16-5(21)1-4(20)15(14(16)29)32-17-11(26)8(22)9(24)7(3-23)31-17/h4-18,23-29H,1-3,19-22H2/t4-,5+,6-,7-,8+,9-,10-,11-,12+,13-,14-,15+,16-,17-,18-/m1/s1" "computed SMILES=OCC1OC(OC2C(O)C(OC3OC(CN)C(O)C(O)C3O)C(N)CC2N)C(O)C(N)C1O" "accession=SMI00012" "date=2012.08.31 (Created 2012.08.31)" "author=S. Neumann: IPB-Halle, Germany & E. Schymanski: Eawag, Switzerland" "license=CC BY" "copyright=CASMI2012" "publication=Schymanski, E.; Neumann, S. The Critical Assessment of Small Molecule Identification (CASMI): Challenges and Solutions. Metabolites 2013, 3 (3), 517â€“38. DOI:10.3390/metabo3030517" "comment=http://casmi-contest.org/challenges-cat1-2.shtml" "comment=CASMI2012 LC Challenge 1" "exact mass=484.238" "ionization=ESI" "resolution=12000" "column=Waters Acquity" "flow gradient=water/acetonitrile" "retention time=22 sec" "computed spectral entropy=2.01613533225305" "computed normalized entropy=0.711607312058829" "computed mass accuracy=0.6882543868858682" "computed mass error=-3.3397199996443305E-4" "SPLASH=splash10-03di-0910000000-320fee58379d18150c61" "submitter=CASMI Team (UFZ, Eawag)" "MoNA Rating=5.0"
Num Peaks: 17
97.026459 2.953896
102.053661 5.492438
114.055068 2.247795
115.039348 13.257104
120.065158 2.074324
126.055163 5.040436
144.065170 25.859415
145.094088 7.789098
146.081499 2.550759
162.075920 31.459356
163.107469 100.000000
187.107758 8.079846
205.118756 25.610203
206.121227 2.799971
241.118166 1.258277
288.156619 1.737155
324.177987 3.120037


Name: Kanamycin A
Synon: $:00in-source
DB#: SMI00013
InChIKey: SBUJHOSQTJFQJX-NOAMYHISSA-N
InChI: InChI=1S/C18H36N4O11/c19-2-6-10(25)12(27)13(28)18(30-6)33-16-5(21)1-4(20)15(14(16)29)32-17-11(26)8(22)9(24)7(3-23)31-17/h4-18,23-29H,1-3,19-22H2/t4-,5+,6-,7-,8+,9-,10-,11-,12+,13-,14-,15+,16-,17-,18-/m1/s1
Precursor_type: [M+H]+
Spectrum_type: MS2
PrecursorMZ: 485.245
Instrument_type: LC-ESI-QTOF
Instrument: Bruker micrOTOF-Q
Ion_mode: P
Collision_energy: 30 eV
Formula: C18H36N4O11
MW: 484
ExactMass: 484.238057972
Comments: "SMILES=C1[C@H]([C@@H]([C@H]([C@@H]([C@H]1N)O[C@@H]2[C@@H]([C@H]([C@@H]([C@H](O2)CN)O)O)O)O)O[C@@H]3[C@@H]([C@H]([C@@H]([C@H](O3)CO)O)N)O)N" "pubchem cid=6032" "chemspider=5810" "InChI=InChI=1S/C18H36N4O11/c19-2-6-10(25)12(27)13(28)18(30-6)33-16-5(21)1-4(20)15(14(16)29)32-17-11(26)8(22)9(24)7(3-23)31-17/h4-18,23-29H,1-3,19-22H2/t4-,5+,6-,7-,8+,9-,10-,11-,12+,13-,14-,15+,16-,17-,18-/m1/s1" "computed SMILES=OCC1OC(OC2C(O)C(OC3OC(CN)C(O)C(O)C3O)C(N)CC2N)C(O)C(N)C1O" "accession=SMI00013" "date=2012.08.31 (Created 2012.08.31)" "author=S. Neumann: IPB-Halle, Germany & E. Schymanski: Eawag, Switzerland" "license=CC BY" "copyright=CASMI2012" "publication=Schymanski, E.; Neumann, S. The Critical Assessment of Small Molecule Identification (CASMI): Challenges and Solutions. Metabolites 2013, 3 (3), 517â€“38. DOI:10.3390/metabo3030517" "comment=http://casmi-contest.org/challenges-cat1-2.shtml" "comment=CASMI2012 LC Challenge 1" "exact mass=484.238" "ionization=ESI" "resolution=12000" "column=Waters Acquity" "flow gradient=water/acetonitrile" "retention time=22 sec" "computed spectral entropy=2.3602441596803074" "computed normalized entropy=0.8512781361144796" "computed mass accuracy=0.6882543868858682" "computed mass error=-3.3397199996443305E-4" "SPLASH=splash10-03di-0900000000-bf025fb5432b884933e0" "submitter=CASMI Team (UFZ, Eawag)" "MoNA Rating=5.0"
Num Peaks: 16
97.025804 9.897034
99.043454 4.057169
102.052812 25.595513
109.071788 3.903489
110.061213 14.445981
114.056032 4.548947
115.039144 25.587828
126.054761 8.414016
128.069453 10.627017
144.066077 25.349623
145.096530 32.634086
146.081469 9.751037
162.075928 22.276010
163.107333 100.000000
187.106587 13.762102
205.119978 10.427232


Name: 1,2-Di-O-sinapoyl-beta-D-glucose
Synon: $:00in-source
DB#: SMI00021
InChIKey: KQDOTXAUJBODDM-STUNQXDBSA-N
InChI: InChI=1S/C28H32O14/c1-36-16-9-14(10-17(37-2)23(16)32)5-7-21(30)41-27-26(35)25(34)20(13-29)40-28(27)42-22(31)8-6-15-11-18(38-3)24(33)19(12-15)39-4/h5-12,20,25-29,32-35H,13H2,1-4H3/b7-5+,8-6+/t20-,25-,26+,27-,28+/m1/s1
Precursor_type: [M-H]-
Spectrum_type: MS2
PrecursorMZ: 591.213
Instrument_type: LC-ESI-QTOF
Instrument: Bruker micrOTOF-Q
Ion_mode: N
Collision_energy: 20 eV
Formula: C28H32O14
MW: 592
ExactMass: 592.179205704
Comments: "SMILES=COC1=CC(=CC(=C1O)OC)/C=C/C(=O)O[C@@H]2[C@H]([C@@H]([C@H](O[C@H]2OC(=O)/C=C/C3=CC(=C(C(=C3)OC)O)OC)CO)O)O" "pubchem cid=5280665" "chemspider=4444262" "InChI=InChI=1S/C28H32O14/c1-36-16-9-14(10-17(37-2)23(16)32)5-7-21(30)41-27-26(35)25(34)20(13-29)40-28(27)42-22(31)8-6-15-11-18(38-3)24(33)19(12-15)39-4/h5-12,20,25-29,32-35H,13H2,1-4H3/b7-5+,8-6+/t20-,25-,26+,27-,28+/m1/s1" "computed SMILES=O=C(OC1OC(CO)C(O)C(O)C1OC(=O)C=CC2=CC(OC)=C(O)C(OC)=C2)C=CC3=CC(OC)=C(O)C(OC)=C3" "accession=SMI00021" "date=2012.08.31 (Created 2012.08.31)" "author=S. Neumann: IPB-Halle, Germany & E. Schymanski: Eawag, Switzerland" "license=CC BY" "copyright=CASMI2012" "publication=Schymanski, E.; Neumann, S. The Critical Assessment of Small Molecule Identification (CASMI): Challenges and Solutions. Metabolites 2013, 3 (3), 517â€“38. DOI:10.3390/metabo3030517" "comment=http://casmi-contest.org/challenges-cat1-2.shtml" "comment=CASMI2012 LC Challenge 2" "exact mass=592.179" "ionization=ESI" "resolution=12000" "column=Waters Acquity" "flow gradient=water/acetonitrile" "retention time=445 sec" "computed spectral entropy=1.876142134550503" "computed normalized entropy=0.5157656897099102" "computed mass accuracy=69.46784999660619" "computed mass error=0.04107029600004353" "SPLASH=splash10-01b9-0097000000-d02b5fcb928aa0476344" "submitter=CASMI Team (UFZ, Eawag)" "MoNA Rating=5.0"
Num Peaks: 38
149.008221 0.163135
164.036012 0.763068
179.062125 0.733626
190.019300 0.485545
191.028456 0.166031
205.048607 15.828467
206.051976 2.159853
207.051447 0.319513
208.036688 1.626044
209.039994 0.264974
221.083355 0.259182
223.063134 100.000000
224.066824 12.213910
225.068615 1.711473
232.040879 0.369709
237.079203 0.284763
247.067505 4.002124
248.071285 0.667986
249.075285 0.200782
265.081044 1.181042
266.087080 0.187268
277.084322 0.188233
289.085625 0.379362
295.096631 0.278971
325.111834 0.621652
349.113306 0.206574
352.101595 4.061489
353.106614 1.347555
354.105654 0.225397
367.127232 95.098219
368.130207 17.722863
369.132083 3.521405
370.134691 0.380327
385.139503 1.825378
386.142338 0.385154
591.212645 6.293740
592.214972 1.967759
593.219251 0.431005


Name: Glucolesquerellin
Synon: $:00in-source
DB#: SMI00031
InChIKey: ZAKICGFSIJSCSF-LPUQOGTASA-N
InChI: InChI=1S/C14H27NO9S3/c1-25-7-5-3-2-4-6-10(15-24-27(20,21)22)26-14-13(19)12(18)11(17)9(8-16)23-14/h9,11-14,16-19H,2-8H2,1H3,(H,20,21,22)/t9-,11-,12+,13-,14+/m1/s1
Precursor_type: [M-H]-
Spectrum_type: MS2
PrecursorMZ: 448.0764
Instrument_type: LC-ESI-QTOF
Instrument: Bruker micrOTOF-Q
Ion_mode: N
Collision_energy: 10 eV
Formula: C14H27NO9S3
MW: 449
ExactMass: 449.08479444400007
Comments: "SMILES=CSCCCCCCC(=NOS(=O)(=O)O)S[C@H]1[C@@H]([C@H]([C@@H]([C@H](O1)CO)O)O)O" "pubchem cid=46173875" "chemspider=30791700" "InChI=InChI=1S/C14H27NO9S3/c1-25-7-5-3-2-4-6-10(15-24-27(20,21)22)26-14-13(19)12(18)11(17)9(8-16)23-14/h9,11-14,16-19H,2-8H2,1H3,(H,20,21,22)/t9-,11-,12+,13-,14+/m1/s1" "computed SMILES=O=S(=O)(O)ON=C(SC1OC(CO)C(O)C(O)C1O)CCCCCCSC" "computed InChI=InChI=1S/C14H27NO9S3/c1-25-7-5-3-2-4-6-10(15-24-27(20,21)22)26-14-13(19)12(18)11(17)9(8-16)23-14/h9,11-14,16-19H,2-8H2,1H3,(H,20,21,22)/b15-10+/t9-,11-,12+,13-,14+/m1/s1" "accession=SMI00031" "date=2012.08.31 (Created 2012.08.31)" "author=S. Neumann: IPB-Halle, Germany & E. Schymanski: Eawag, Switzerland" "license=CC BY" "copyright=CASMI2012" "publication=Schymanski, E.; Neumann, S. The Critical Assessment of Small Molecule Identification (CASMI): Challenges and Solutions. Metabolites 2013, 3 (3), 517â€“38. DOI:10.3390/metabo3030517" "comment=http://casmi-contest.org/challenges-cat1-2.shtml" "comment=CASMI2012 LC Challenge 3" "exact mass=449.085" "ionization=ESI" "resolution=12000" "column=Waters Acquity" "flow gradient=water/acetonitrile" "retention time=244 sec (MSMS)" "computed spectral entropy=0.8980830980003128" "computed normalized entropy=0.43188667726374946" "computed mass accuracy=2.4961011115489717" "computed mass error=-0.0011184440000988616" "SPLASH=splash10-0002-0000900000-9882a92ba1e922dd23f3" "submitter=CASMI Team (UFZ, Eawag)" "MoNA Rating=5.0"
Num Peaks: 8
96.958333 1.040504
259.012932 0.424244
274.989482 0.284505
448.076411 100.000000
449.079096 16.528435
450.073551 14.753044
451.076662 2.399694
452.074030 0.967116


Name: Glucolesquerellin
Synon: $:00in-source
DB#: SMI00032
InChIKey: ZAKICGFSIJSCSF-LPUQOGTASA-N
InChI: InChI=1S/C14H27NO9S3/c1-25-7-5-3-2-4-6-10(15-24-27(20,21)22)26-14-13(19)12(18)11(17)9(8-16)23-14/h9,11-14,16-19H,2-8H2,1H3,(H,20,21,22)/t9-,11-,12+,13-,14+/m1/s1
Precursor_type: [M-H]-
Spectrum_type: MS2
PrecursorMZ: 448.0764
Instrument_type: LC-ESI-QTOF
Instrument: Bruker micrOTOF-Q
Ion_mode: N
Collision_energy: 20 eV
Formula: C14H27NO9S3
MW: 449
ExactMass: 449.084794444
Comments: "SMILES=CSCCCCCCC(=NOS(=O)(=O)O)S[C@H]1[C@@H]([C@H]([C@@H]([C@H](O1)CO)O)O)O" "pubchem cid=46173875" "chemspider=30791700" "InChI=InChI=1S/C14H27NO9S3/c1-25-7-5-3-2-4-6-10(15-24-27(20,21)22)26-14-13(19)12(18)11(17)9(8-16)23-14/h9,11-14,16-19H,2-8H2,1H3,(H,20,21,22)/t9-,11-,12+,13-,14+/m1/s1" "computed SMILES=O=S(=O)(O)ON=C(SC1OC(CO)C(O)C(O)C1O)CCCCCCSC" "computed InChI=InChI=1S/C14H27NO9S3/c1-25-7-5-3-2-4-6-10(15-24-27(20,21)22)26-14-13(19)12(18)11(17)9(8-16)23-14/h9,11-14,16-19H,2-8H2,1H3,(H,20,21,22)/b15-10+/t9-,11-,12+,13-,14+/m1/s1" "accession=SMI00032" "date=2012.08.31 (Created 2012.08.31)" "author=S. Neumann: IPB-Halle, Germany & E. Schymanski: Eawag, Switzerland" "license=CC BY" "copyright=CASMI2012" "publication=Schymanski, E.; Neumann, S. The Critical Assessment of Small Molecule Identification (CASMI): Challenges and Solutions. Metabolites 2013, 3 (3), 517â€“38. DOI:10.3390/metabo3030517" "comment=http://casmi-contest.org/challenges-cat1-2.shtml" "comment=CASMI2012 LC Challenge 3" "exact mass=449.085" "ionization=ESI" "resolution=12000" "column=Waters Acquity" "flow gradient=water/acetonitrile" "retention time=244 sec (MSMS)" "computed spectral entropy=1.988044848805416" "computed normalized entropy=0.8290790975559769" "computed mass accuracy=2.496101111422111" "computed mass error=-0.0011184440000420182" "SPLASH=splash10-0002-6030900000-5a11833c61b3043f21a6" "submitter=CASMI Team (UFZ, Eawag)" "MoNA Rating=5.0"
Num Peaks: 11
95.949382 25.180367
96.957279 70.100532
98.953423 7.297457
195.032009 5.393258
206.066364 6.221171
255.018354 10.242460
259.011029 23.370787
274.988822 20.212892
448.075482 100.000000
449.078316 22.034299
450.073854 18.296866


Name: Glucolesquerellin
Synon: $:00in-source
DB#: SMI00033
InChIKey: ZAKICGFSIJSCSF-LPUQOGTASA-N
InChI: InChI=1S/C14H27NO9S3/c1-25-7-5-3-2-4-6-10(15-24-27(20,21)22)26-14-13(19)12(18)11(17)9(8-16)23-14/h9,11-14,16-19H,2-8H2,1H3,(H,20,21,22)/t9-,11-,12+,13-,14+/m1/s1
Precursor_type: [M-H]-
Spectrum_type: MS2
PrecursorMZ: 448.0764
Instrument_type: LC-ESI-QTOF
Instrument: Bruker micrOTOF-Q
Ion_mode: N
Collision_energy: 30 eV
Formula: C14H27NO9S3
MW: 449
ExactMass: 449.084794444
Comments: "SMILES=CSCCCCCCC(=NOS(=O)(=O)O)S[C@H]1[C@@H]([C@H]([C@@H]([C@H](O1)CO)O)O)O" "pubchem cid=46173875" "chemspider=30791700" "InChI=InChI=1S/C14H27NO9S3/c1-25-7-5-3-2-4-6-10(15-24-27(20,21)22)26-14-13(19)12(18)11(17)9(8-16)23-14/h9,11-14,16-19H,2-8H2,1H3,(H,20,21,22)/t9-,11-,12+,13-,14+/m1/s1" "computed SMILES=O=S(=O)(O)ON=C(SC1OC(CO)C(O)C(O)C1O)CCCCCCSC" "computed InChI=InChI=1S/C14H27NO9S3/c1-25-7-5-3-2-4-6-10(15-24-27(20,21)22)26-14-13(19)12(18)11(17)9(8-16)23-14/h9,11-14,16-19H,2-8H2,1H3,(H,20,21,22)/b15-10+/t9-,11-,12+,13-,14+/m1/s1" "accession=SMI00033" "date=2012.08.31 (Created 2012.08.31)" "author=S. Neumann: IPB-Halle, Germany & E. Schymanski: Eawag, Switzerland" "license=CC BY" "copyright=CASMI2012" "publication=Schymanski, E.; Neumann, S. The Critical Assessment of Small Molecule Identification (CASMI): Challenges and Solutions. Metabolites 2013, 3 (3), 517â€“38. DOI:10.3390/metabo3030517" "comment=http://casmi-contest.org/challenges-cat1-2.shtml" "comment=CASMI2012 LC Challenge 3" "exact mass=449.085" "ionization=ESI" "resolution=12000" "column=Waters Acquity" "flow gradient=water/acetonitrile" "retention time=244 sec (MSMS)" "computed spectral entropy=1.103917788259114" "computed normalized entropy=0.7963083593352683" "computed mass accuracy=2.496101111422111" "computed mass error=-0.0011184440000420182" "SPLASH=splash10-0002-9010000000-1159ee446342c35cb732" "submitter=CASMI Team (UFZ, Eawag)" "MoNA Rating=5.0"
Num Peaks: 4
95.949303 81.863030
96.957300 100.000000
259.012401 22.083575
274.986685 10.359837


Name: Glucolesquerellin
Synon: $:00in-source
DB#: SMI00034
InChIKey: ZAKICGFSIJSCSF-LPUQOGTASA-N
InChI: InChI=1S/C14H27NO9S3/c1-25-7-5-3-2-4-6-10(15-24-27(20,21)22)26-14-13(19)12(18)11(17)9(8-16)23-14/h9,11-14,16-19H,2-8H2,1H3,(H,20,21,22)/t9-,11-,12+,13-,14+/m1/s1
Precursor_type: [M-H]-
Spectrum_type: MS2
PrecursorMZ: 448.0764
Instrument_type: LC-ESI-QTOF
Instrument: Bruker micrOTOF-Q
Ion_mode: N
Collision_energy: 40 eV
Formula: C14H27NO9S3
MW: 449
ExactMass: 449.08479444399995
Comments: "SMILES=CSCCCCCCC(=NOS(=O)(=O)O)S[C@H]1[C@@H]([C@H]([C@@H]([C@H](O1)CO)O)O)O" "pubchem cid=46173875" "chemspider=30791700" "InChI=InChI=1S/C14H27NO9S3/c1-25-7-5-3-2-4-6-10(15-24-27(20,21)22)26-14-13(19)12(18)11(17)9(8-16)23-14/h9,11-14,16-19H,2-8H2,1H3,(H,20,21,22)/t9-,11-,12+,13-,14+/m1/s1" "computed SMILES=O=S(=O)(O)ON=C(SC1OC(CO)C(O)C(O)C1O)CCCCCCSC" "computed InChI=InChI=1S/C14H27NO9S3/c1-25-7-5-3-2-4-6-10(15-24-27(20,21)22)26-14-13(19)12(18)11(17)9(8-16)23-14/h9,11-14,16-19H,2-8H2,1H3,(H,20,21,22)/b15-10+/t9-,11-,12+,13-,14+/m1/s1" "accession=SMI00034" "date=2012.08.31 (Created 2012.08.31)" "author=S. Neumann: IPB-Halle, Germany & E. Schymanski: Eawag, Switzerland" "license=CC BY" "copyright=CASMI2012" "publication=Schymanski, E.; Neumann, S. The Critical Assessment of Small Molecule Identification (CASMI): Challenges and Solutions. Metabolites 2013, 3 (3), 517â€“38. DOI:10.3390/metabo3030517" "comment=http://casmi-contest.org/challenges-cat1-2.shtml" "comment=CASMI2012 LC Challenge 3" "exact mass=449.085" "ionization=ESI" "resolution=12000" "column=Waters Acquity" "flow gradient=water/acetonitrile" "retention time=244 sec (MSMS)" "computed spectral entropy=0.6889715468924748" "computed normalized entropy=0.9939758340153713" "computed mass accuracy=2.4961011112952494" "computed mass error=-0.0011184439999851747" "SPLASH=splash10-0002-9000000000-6d959666c6ee89dee2ab" "submitter=CASMI Team (UFZ, Eawag)" "MoNA Rating=4.333333333333334"
Num Peaks: 2
95.949111 100.000000
96.957434 83.264033


Name: 1-Aminoanthraquinone
Synon: $:00in-source
DB#: SMI00101
InChIKey: KHUFHLFHOQVFGB-UHFFFAOYSA-N
InChI: InChI=1S/C14H9NO2/c15-11-7-3-6-10-12(11)14(17)9-5-2-1-4-8(9)13(10)16/h1-7H,15H2
Precursor_type: [M+H]+
Spectrum_type: MS2
PrecursorMZ: 224.072
Instrument_type: LC-APCI-ITFT
Instrument: LTQ-Orbitrap
Ion_mode: P
Collision_energy: 35
Formula: C14H9NO2
MW: 223
ExactMass: 223.063328528
Comments: "SMILES=C1=CC=C2C(=C1)C(=O)C3=C(C2=O)C(=CC=C3)N" "pubchem cid=6710" "chemspider=6454" "InChI=InChI=1S/C14H9NO2/c15-11-7-3-6-10-12(11)14(17)9-5-2-1-4-8(9)13(10)16/h1-7H,15H2" "computed SMILES=O=C1C=2C=CC=CC2C(=O)C=3C(N)=CC=CC13" "accession=SMI00101" "date=2012.08.31 (Created 2012.08.31)" "author=S. Neumann: IPB-Halle, Germany & E. Schymanski: Eawag, Switzerland" "license=CC BY" "copyright=CASMI2012" "publication=Schymanski, E.; Neumann, S. The Critical Assessment of Small Molecule Identification (CASMI): Challenges and Solutions. Metabolites 2013, 3 (3), 517â€“38. DOI:10.3390/metabo3030517" "comment=http://casmi-contest.org/challenges-cat1-2.shtml" "comment=CASMI2012 LC Challenge 10" "exact mass=223.063" "ionization=APCI" "resolution=15000" "retention time=27.02 min" "computed spectral entropy=1.2159231967185242" "computed normalized entropy=0.5533904951093507" "computed mass accuracy=6.2277839266525366" "computed mass error=0.0013954720000128873" "SPLASH=splash10-00di-0190000000-75405b75d74684342a9c" "submitter=CASMI Team (UFZ, Eawag)" "MoNA Rating=4.583333333333334"
Num Peaks: 9
105.0338 5.609405
130.0292 0.920711
146.0243 13.846357
168.0817 0.621341
178.0662 1.679387
196.0769 2.123578
206.0614 7.119077
224.0719 100.000000
225.0754 25.957154


Name: 1-Pyrenemethanol
Synon: $:00in-source
DB#: SMI00111
InChIKey: NGDMLQSGYUCLDC-UHFFFAOYSA-N
InChI: InChI=1S/C17H12O/c18-10-14-7-6-13-5-4-11-2-1-3-12-8-9-15(14)17(13)16(11)12/h1-9,18H,10H2
Precursor_type: [M-OH]+
Spectrum_type: MS2
PrecursorMZ: 215.085
Instrument_type: LC-APCI-ITFT
Instrument: LTQ-Orbitrap
Ion_mode: P
Collision_energy: 35
Formula: C17H12O
MW: 232
ExactMass: 232.088815004
Comments: "SMILES=C1=CC2=C3C(=C1)C=CC4=C(C=CC(=C43)C=C2)CO" "pubchem cid=104977" "chemspider=94729" "InChI=InChI=1S/C17H12O/c18-10-14-7-6-13-5-4-11-2-1-3-12-8-9-15(14)17(13)16(11)12/h1-9,18H,10H2" "computed SMILES=OCC1=CC=C2C=CC3=CC=CC=4C=CC1=C2C34" "accession=SMI00111" "date=2012.08.31 (Created 2012.08.31)" "author=S. Neumann: IPB-Halle, Germany & E. Schymanski: Eawag, Switzerland" "license=CC BY" "copyright=CASMI2012" "publication=Schymanski, E.; Neumann, S. The Critical Assessment of Small Molecule Identification (CASMI): Challenges and Solutions. Metabolites 2013, 3 (3), 517â€“38. DOI:10.3390/metabo3030517" "comment=http://casmi-contest.org/challenges-cat1-2.shtml" "comment=CASMI2012 LC Challenge 11" "exact mass=232.089" "ionization=APCI" "resolution=15000" "retention time=29.79 min" "computed spectral entropy=0.6563665175565991" "computed normalized entropy=0.9469367198844644" "SPLASH=splash10-014i-0090000000-0bb3525ed97469410bab" "submitter=CASMI Team (UFZ, Eawag)" "MoNA Rating=3.846153846153846"
Num Peaks: 2
215.0858 100.000000
216.0892 57.536659


Name: 1-Pyrenemethanol
Synon: $:00in-source
DB#: SMI00112
InChIKey: NGDMLQSGYUCLDC-UHFFFAOYSA-N
InChI: InChI=1S/C17H12O/c18-10-14-7-6-13-5-4-11-2-1-3-12-8-9-15(14)17(13)16(11)12/h1-9,18H,10H2
Precursor_type: [M-H]+
Spectrum_type: MS2
PrecursorMZ: 231.08
Instrument_type: LC-APCI-ITFT
Instrument: LTQ-Orbitrap
Ion_mode: P
Collision_energy: 35
Formula: C17H12O
MW: 232
ExactMass: 232.088815004
Comments: "SMILES=C1=CC2=C3C(=C1)C=CC4=C(C=CC(=C43)C=C2)CO" "pubchem cid=104977" "chemspider=94729" "InChI=InChI=1S/C17H12O/c18-10-14-7-6-13-5-4-11-2-1-3-12-8-9-15(14)17(13)16(11)12/h1-9,18H,10H2" "computed SMILES=OCC1=CC=C2C=CC3=CC=CC=4C=CC1=C2C34" "accession=SMI00112" "date=2012.08.31 (Created 2012.08.31)" "author=S. Neumann: IPB-Halle, Germany & E. Schymanski: Eawag, Switzerland" "license=CC BY" "copyright=CASMI2012" "publication=Schymanski, E.; Neumann, S. The Critical Assessment of Small Molecule Identification (CASMI): Challenges and Solutions. Metabolites 2013, 3 (3), 517â€“38. DOI:10.3390/metabo3030517" "comment=http://casmi-contest.org/challenges-cat1-2.shtml" "comment=CASMI2012 LC Challenge 11" "exact mass=232.089" "ionization=APCI" "resolution=15000" "retention time=29.79 min" "computed spectral entropy=0.2264935950747427" "computed normalized entropy=0.3267611864074443" "computed mass accuracy=6.66004846803831" "computed mass error=-0.0015390039999942928" "SPLASH=splash10-0udi-0090000000-8badf8904349f545e017" "submitter=CASMI Team (UFZ, Eawag)" "MoNA Rating=3.9285714285714284"
Num Peaks: 2
203.0856 100.000000
216.0936 6.363500


Name: alpha-(o-Nitro-p-tolylazo)acetoacetanilide
Synon: $:00in-source
DB#: SMI00121
InChIKey: MFYSUUPKMDJYPF-UHFFFAOYSA-N
InChI: InChI=1S/C17H16N4O4/c1-11-8-9-14(15(10-11)21(24)25)19-20-16(12(2)22)17(23)18-13-6-4-3-5-7-13/h3-10,16H,1-2H3,(H,18,23)
Precursor_type: [M+H]+
Spectrum_type: MS2
PrecursorMZ: 341.126
Instrument_type: LC-APCI-ITFT
Instrument: LTQ-Orbitrap
Ion_mode: P
Collision_energy: 35
Formula: C17H16N4O4
MW: 340
ExactMass: 340.117154992
Comments: "SMILES=CC1=CC(=C(C=C1)N=NC(C(=O)C)C(=O)NC2=CC=CC=C2)[N+](=O)[O-]" "pubchem cid=221491" "chemspider=21159660" "InChI=InChI=1S/C17H16N4O4/c1-11-8-9-14(15(10-11)21(24)25)19-20-16(12(2)22)17(23)18-13-6-4-3-5-7-13/h3-10,16H,1-2H3,(H,18,23)" "computed SMILES=O=C(C)C(N=NC1=CC=C(C=C1N(=O)=O)C)C(O)=NC=2C=CC=CC2" "accession=SMI00121" "date=2012.08.31 (Created 2012.08.31)" "author=S. Neumann: IPB-Halle, Germany & E. Schymanski: Eawag, Switzerland" "license=CC BY" "copyright=CASMI2012" "publication=Schymanski, E.; Neumann, S. The Critical Assessment of Small Molecule Identification (CASMI): Challenges and Solutions. Metabolites 2013, 3 (3), 517â€“38. DOI:10.3390/metabo3030517" "comment=http://casmi-contest.org/challenges-cat1-2.shtml" "comment=CASMI2012 LC Challenge 12" "exact mass=340.117" "ionization=APCI" "resolution=15000" "retention time=46.89 min" "computed spectral entropy=1.5290041934921652" "computed normalized entropy=0.6376442753097387" "computed mass accuracy=4.599496960038038" "computed mass error=0.0015690079999899353" "SPLASH=splash10-0002-0690000000-ab49bf2e0a424a3e1e0e" "submitter=CASMI Team (UFZ, Eawag)" "MoNA Rating=4.615384615384616"
Num Peaks: 11
150.0670 36.585138
153.0666 2.956505
167.0699 0.726777
176.0717 5.190427
178.0621 31.286563
220.0731 7.971986
248.0683 100.000000
266.0790 1.563148
280.0947 2.803114
295.1211 0.854851
323.1161 10.637401


Name: Benzyldiphenylphosphine oxide
Synon: $:00in-source
DB#: SMI00131
InChIKey: NXGAOFONOFYCNG-UHFFFAOYSA-N
InChI: InChI=1S/C19H17OP/c20-21(18-12-6-2-7-13-18,19-14-8-3-9-15-19)16-17-10-4-1-5-11-17/h1-15H,16H2
Precursor_type: [M+H]+
Spectrum_type: MS2
PrecursorMZ: 293.11
Instrument_type: APCI-ITFT
Instrument: LTQ-Orbitrap
Ion_mode: P
Collision_energy: 45 CID
Formula: C19H17OP
MW: 292
ExactMass: 292.101701794
Comments: "SMILES=C1=CC=C(C=C1)CP(=O)(C2=CC=CC=C2)C3=CC=CC=C3" "pubchem cid=76293" "chemspider=68772" "InChI=InChI=1S/C19H17OP/c20-21(18-12-6-2-7-13-18,19-14-8-3-9-15-19)16-17-10-4-1-5-11-17/h1-15H,16H2" "computed SMILES=O=P(C=1C=CC=CC1)(C=2C=CC=CC2)CC=3C=CC=CC3" "accession=SMI00131" "date=2012.08.31 (Created 2012.08.31)" "author=S. Neumann: IPB-Halle, Germany & E. Schymanski: Eawag, Switzerland" "license=CC BY" "copyright=CASMI2012" "publication=Schymanski, E.; Neumann, S. The Critical Assessment of Small Molecule Identification (CASMI): Challenges and Solutions. Metabolites 2013, 3 (3), 517â€“38. DOI:10.3390/metabo3030517" "comment=http://casmi-contest.org/challenges-cat1-2.shtml" "comment=CASMI2012 LC Challenge 13" "exact mass=292.102" "ionization=APCI" "resolution=15000" "flow gradient=DIRECT INJECTION" "retention time=0.58-0.89 min" "computed spectral entropy=1.4134503381263792" "computed normalized entropy=0.679725931119252" "computed mass accuracy=3.4874483982669053" "computed mass error=0.0010222060000160127" "SPLASH=splash10-0udl-5190000000-b1bb8db8b4ab44c0751c" "submitter=CASMI Team (UFZ, Eawag)" "MoNA Rating=4.615384615384616"
Num Peaks: 8
91.0541 87.368741
125.0152 5.162384
167.0859 6.364215
185.0519 4.974697
201.0469 100.000000
215.0626 14.685106
219.0576 8.826473
233.0733 8.965518


Name: Benzyldiphenylphosphine oxide
Synon: $:00in-source
DB#: SMI00132
InChIKey: NXGAOFONOFYCNG-UHFFFAOYSA-N
InChI: InChI=1S/C19H17OP/c20-21(18-12-6-2-7-13-18,19-14-8-3-9-15-19)16-17-10-4-1-5-11-17/h1-15H,16H2
Precursor_type: [M+H]+
Spectrum_type: MS2
PrecursorMZ: 293.11
Instrument_type: APCI-ITFT
Instrument: LTQ-Orbitrap
Ion_mode: P
Collision_energy: 45 HCD
Formula: C19H17OP
MW: 292
ExactMass: 292.10170179399995
Comments: "SMILES=C1=CC=C(C=C1)CP(=O)(C2=CC=CC=C2)C3=CC=CC=C3" "pubchem cid=76293" "chemspider=68772" "InChI=InChI=1S/C19H17OP/c20-21(18-12-6-2-7-13-18,19-14-8-3-9-15-19)16-17-10-4-1-5-11-17/h1-15H,16H2" "computed SMILES=O=P(C=1C=CC=CC1)(C=2C=CC=CC2)CC=3C=CC=CC3" "accession=SMI00132" "date=2012.08.31 (Created 2012.08.31)" "author=S. Neumann: IPB-Halle, Germany & E. Schymanski: Eawag, Switzerland" "license=CC BY" "copyright=CASMI2012" "publication=Schymanski, E.; Neumann, S. The Critical Assessment of Small Molecule Identification (CASMI): Challenges and Solutions. Metabolites 2013, 3 (3), 517â€“38. DOI:10.3390/metabo3030517" "comment=http://casmi-contest.org/challenges-cat1-2.shtml" "comment=CASMI2012 LC Challenge 13" "exact mass=292.102" "ionization=APCI" "resolution=15000" "flow gradient=DIRECT INJECTION" "retention time=0.58-0.89 min" "computed spectral entropy=0.9769227553864824" "computed normalized entropy=0.46980053817588674" "computed mass accuracy=3.4874483984608373" "computed mass error=0.0010222060000728561" "SPLASH=splash10-0006-3090000000-8aaa4f7a220a160829c9" "submitter=CASMI Team (UFZ, Eawag)" "MoNA Rating=4.615384615384616"
Num Peaks: 8
91.0541 38.852255
125.0151 1.040502
185.0518 0.915421
201.0468 5.043258
219.0574 5.335368
233.0732 0.868367
293.1097 100.000000
294.1130 0.800959


Name: Benzyldiphenylphosphine oxide
Synon: $:00in-source
DB#: SMI00133
InChIKey: NXGAOFONOFYCNG-UHFFFAOYSA-N
InChI: InChI=1S/C19H17OP/c20-21(18-12-6-2-7-13-18,19-14-8-3-9-15-19)16-17-10-4-1-5-11-17/h1-15H,16H2
Precursor_type: [M+H]+
Spectrum_type: MS2
PrecursorMZ: 293.11
Instrument_type: APCI-ITFT
Instrument: LTQ-Orbitrap
Ion_mode: P
Collision_energy: 75 HCD
Formula: C19H17OP
MW: 292
ExactMass: 292.101701794
Comments: "SMILES=C1=CC=C(C=C1)CP(=O)(C2=CC=CC=C2)C3=CC=CC=C3" "pubchem cid=76293" "chemspider=68772" "InChI=InChI=1S/C19H17OP/c20-21(18-12-6-2-7-13-18,19-14-8-3-9-15-19)16-17-10-4-1-5-11-17/h1-15H,16H2" "computed SMILES=O=P(C=1C=CC=CC1)(C=2C=CC=CC2)CC=3C=CC=CC3" "accession=SMI00133" "date=2012.08.31 (Created 2012.08.31)" "author=S. Neumann: IPB-Halle, Germany & E. Schymanski: Eawag, Switzerland" "license=CC BY" "copyright=CASMI2012" "publication=Schymanski, E.; Neumann, S. The Critical Assessment of Small Molecule Identification (CASMI): Challenges and Solutions. Metabolites 2013, 3 (3), 517â€“38. DOI:10.3390/metabo3030517" "comment=http://casmi-contest.org/challenges-cat1-2.shtml" "comment=CASMI2012 LC Challenge 13" "exact mass=292.102" "ionization=APCI" "resolution=15000" "flow gradient=DIRECT INJECTION" "retention time=0.58-0.89 min" "computed spectral entropy=0.5182474513406766" "computed normalized entropy=0.32200524626444493" "computed mass accuracy=3.4874483982669053" "computed mass error=0.0010222060000160127" "SPLASH=splash10-0006-9010000000-db09a97502ccbb4ffc13" "submitter=CASMI Team (UFZ, Eawag)" "MoNA Rating=4.615384615384616"
Num Peaks: 5
91.0540 100.000000
183.0361 2.101101
201.0468 5.746169
219.0574 5.403856
293.1100 0.788665


Name: 1H-Benzo[g]indole
Synon: $:00in-source
DB#: SMI00141
InChIKey: HIYWOHBEPVGIQN-UHFFFAOYSA-N
InChI: InChI=1S/C12H9N/c1-2-4-11-9(3-1)5-6-10-7-8-13-12(10)11/h1-8,13H
Precursor_type: [M]+*
Spectrum_type: MS2
PrecursorMZ: 167.073
Instrument_type: LC-APCI-ITFT
Instrument: LTQ-Orbitrap
Ion_mode: P
Collision_energy: 120 HCD
Formula: C12H9N
MW: 167
ExactMass: 167.073499288
Comments: "SMILES=C1=CC=C2C(=C1)C=CC3=C2NC=C3" "pubchem cid=98617" "chemspider=89061" "InChI=InChI=1S/C12H9N/c1-2-4-11-9(3-1)5-6-10-7-8-13-12(10)11/h1-8,13H" "computed SMILES=C=1C=CC2=C(C1)C=CC=3C=CNC32" "accession=SMI00141" "date=2012.08.31 (Created 2012.08.31)" "author=S. Neumann: IPB-Halle, Germany & E. Schymanski: Eawag, Switzerland" "license=CC BY" "copyright=CASMI2012" "publication=Schymanski, E.; Neumann, S. The Critical Assessment of Small Molecule Identification (CASMI): Challenges and Solutions. Metabolites 2013, 3 (3), 517â€“38. DOI:10.3390/metabo3030517" "comment=http://casmi-contest.org/challenges-cat1-2.shtml" "comment=CASMI2012 LC Challenge 14" "exact mass=167.073" "ionization=APCI" "resolution=30000" "retention time=22.62 min" "computed spectral entropy=1.660594934550683" "computed normalized entropy=0.7211872167518532" "computed mass accuracy=0.295032168434029" "computed mass error=4.929190947677853E-5" "SPLASH=splash10-014l-0900000000-8d1ae42b510442c4e57a" "submitter=CASMI Team (UFZ, Eawag)" "MoNA Rating=4.642857142857143"
Num Peaks: 13
91.0537 2.450107
115.0537 71.276336
116.0615 1.106027
139.0539 8.234626
140.0573 10.913547
140.0616 15.298878
141.0652 3.466852
141.0693 90.507087
153.0570 1.157997
166.0648 11.354116
167.0725 100.000000
168.0760 3.194976
168.0803 8.912198


Name: 1H-Benzo[g]indole
Synon: $:00in-source
DB#: SMI00142
InChIKey: HIYWOHBEPVGIQN-UHFFFAOYSA-N
InChI: InChI=1S/C12H9N/c1-2-4-11-9(3-1)5-6-10-7-8-13-12(10)11/h1-8,13H
Precursor_type: [M]+*
Spectrum_type: MS2
PrecursorMZ: 167.073
Instrument_type: LC-APCI-ITFT
Instrument: LTQ-Orbitrap
Ion_mode: P
Collision_energy: 180 HCD
Formula: C12H9N
MW: 167
ExactMass: 167.073499288
Comments: "SMILES=C1=CC=C2C(=C1)C=CC3=C2NC=C3" "pubchem cid=98617" "chemspider=89061" "InChI=InChI=1S/C12H9N/c1-2-4-11-9(3-1)5-6-10-7-8-13-12(10)11/h1-8,13H" "computed SMILES=C=1C=CC2=C(C1)C=CC=3C=CNC32" "accession=SMI00142" "date=2012.08.31 (Created 2012.08.31)" "author=S. Neumann: IPB-Halle, Germany & E. Schymanski: Eawag, Switzerland" "license=CC BY" "copyright=CASMI2012" "publication=Schymanski, E.; Neumann, S. The Critical Assessment of Small Molecule Identification (CASMI): Challenges and Solutions. Metabolites 2013, 3 (3), 517â€“38. DOI:10.3390/metabo3030517" "comment=http://casmi-contest.org/challenges-cat1-2.shtml" "comment=CASMI2012 LC Challenge 14" "exact mass=167.073" "ionization=APCI" "resolution=30000" "retention time=22.62 min" "computed spectral entropy=1.7235318615446247" "computed normalized entropy=0.6936002451809076" "computed mass accuracy=0.295032168434029" "computed mass error=4.929190947677853E-5" "SPLASH=splash10-014r-0900000000-31a6ad669b81c181755a" "submitter=CASMI Team (UFZ, Eawag)" "MoNA Rating=4.642857142857143"
Num Peaks: 14
63.0222 2.409118
65.0379 3.109047
89.0380 13.119751
91.0536 7.705639
102.0458 2.419419
113.0381 2.589502
115.0536 100.000000
139.0537 80.900425
140.0489 4.989889
140.0570 13.001141
140.0614 10.153340
141.0693 4.526866
166.0647 14.990996
167.0725 6.718857


Name: 1-Isopropyl-5-methyl-1H-indole-2,3-dione
Synon: $:00in-source
DB#: SMI00151
InChIKey: SYJHSTNDLFUIMT-UHFFFAOYSA-N
InChI: InChI=1S/C12H13NO2/c1-7(2)13-10-5-4-8(3)6-9(10)11(14)12(13)15/h4-7H,1-3H3
Precursor_type: [M+H]+
Spectrum_type: MS2
PrecursorMZ: 204.101
Instrument_type: LC-APCI-ITFT
Instrument: LTQ-Orbitrap
Ion_mode: P
Collision_energy: 90 HCD
Formula: C12H13NO2
MW: 203
ExactMass: 203.094628656
Comments: "SMILES=CC1=CC2=C(C=C1)N(C(=O)C2=O)C(C)C" "pubchem cid=2145522" "chemspider=1606080" "InChI=InChI=1S/C12H13NO2/c1-7(2)13-10-5-4-8(3)6-9(10)11(14)12(13)15/h4-7H,1-3H3" "computed SMILES=O=C1C(=O)N(C2=CC=C(C=C12)C)C(C)C" "accession=SMI00151" "date=2012.08.31 (Created 2012.08.31)" "author=S. Neumann: IPB-Halle, Germany & E. Schymanski: Eawag, Switzerland" "license=CC BY" "copyright=CASMI2012" "publication=Schymanski, E.; Neumann, S. The Critical Assessment of Small Molecule Identification (CASMI): Challenges and Solutions. Metabolites 2013, 3 (3), 517â€“38. DOI:10.3390/metabo3030517" "comment=http://casmi-contest.org/challenges-cat1-2.shtml" "comment=CASMI2012 LC Challenge 15" "exact mass=203.095" "ionization=APCI" "resolution=30000" "retention time=13.08 min" "computed spectral entropy=2.0498518008580247" "computed normalized entropy=0.7092000519511251" "computed mass accuracy=4.432393765776701" "computed mass error=-9.046559999887904E-4" "SPLASH=splash10-03di-1900000000-a03a1f21d3f4906c72a3" "submitter=CASMI Team (UFZ, Eawag)" "MoNA Rating=4.615384615384616"
Num Peaks: 20
53.0377 1.177266
65.0377 1.009865
77.0378 1.900056
79.0535 16.558828
89.0378 6.679634
91.0535 16.022372
95.0484 1.579887
105.0440 1.110277
106.0643 39.746497
107.0484 2.073003
109.0640 1.549345
116.0487 34.929999
119.0358 1.290505
119.0596 3.216975
132.0436 1.438958
134.0593 16.028248
144.0436 22.060078
144.0548 6.538217
147.0671 1.501261
162.0542 100.000000


Name: 1-Isopropyl-5-methyl-1H-indole-2,3-dione
Synon: $:00in-source
DB#: SMI00152
InChIKey: SYJHSTNDLFUIMT-UHFFFAOYSA-N
InChI: InChI=1S/C12H13NO2/c1-7(2)13-10-5-4-8(3)6-9(10)11(14)12(13)15/h4-7H,1-3H3
Precursor_type: [M+H]+
Spectrum_type: MS2
PrecursorMZ: 204.101
Instrument_type: LC-APCI-ITFT
Instrument: LTQ-Orbitrap
Ion_mode: P
Collision_energy: 120 HCD
Formula: C12H13NO2
MW: 203
ExactMass: 203.094628656
Comments: "SMILES=CC1=CC2=C(C=C1)N(C(=O)C2=O)C(C)C" "pubchem cid=2145522" "chemspider=1606080" "InChI=InChI=1S/C12H13NO2/c1-7(2)13-10-5-4-8(3)6-9(10)11(14)12(13)15/h4-7H,1-3H3" "computed SMILES=O=C1C(=O)N(C2=CC=C(C=C12)C)C(C)C" "accession=SMI00152" "date=2012.08.31 (Created 2012.08.31)" "author=S. Neumann: IPB-Halle, Germany & E. Schymanski: Eawag, Switzerland" "license=CC BY" "copyright=CASMI2012" "publication=Schymanski, E.; Neumann, S. The Critical Assessment of Small Molecule Identification (CASMI): Challenges and Solutions. Metabolites 2013, 3 (3), 517â€“38. DOI:10.3390/metabo3030517" "comment=http://casmi-contest.org/challenges-cat1-2.shtml" "comment=CASMI2012 LC Challenge 15" "exact mass=203.095" "ionization=APCI" "resolution=30000" "retention time=13.08 min" "computed spectral entropy=2.429336719617552" "computed normalized entropy=0.8404928234511295" "computed mass accuracy=4.432393765776701" "computed mass error=-9.046559999887904E-4" "SPLASH=splash10-05pc-9700000000-0866461fd976f46f8542" "submitter=CASMI Team (UFZ, Eawag)" "MoNA Rating=4.615384615384616"
Num Peaks: 20
53.0378 10.954816
65.0378 11.345572
77.0378 16.485945
79.0535 66.683472
89.0379 100.000000
90.0331 5.761384
91.0535 56.019161
95.0485 21.043901
104.0488 3.085719
105.0440 14.138514
106.0644 57.614667
107.0484 4.041287
116.0488 92.031024
119.0359 5.026154
119.0597 3.803180
132.0437 3.797395
134.0593 13.842471
144.0437 11.798934
144.0550 5.058593
162.0544 25.365074


Name: [1-(4-methoxyanilino)-1-oxopropan-2-yl] 6-oxo-1-propylpyridazine-3-carboxylate
Synon: $:00in-source
DB#: SMI00161
InChIKey: NFFNHGCVXXIUCW-UHFFFAOYSA-N
InChI: InChI=1S/C18H21N3O5/c1-4-11-21-16(22)10-9-15(20-21)18(24)26-12(2)17(23)19-13-5-7-14(25-3)8-6-13/h5-10,12H,4,11H2,1-3H3,(H,19,23)
Spectrum_type: MS2
PrecursorMZ: 155.05
Instrument_type: APCI-ITFT
Instrument: LTQ-Orbitrap
Ion_mode: P
Collision_energy: 25 CID
Formula: C18H21N3O5
MW: 359
ExactMass: 359.14812077199997
Comments: "SMILES=CCCN1C(=O)C=CC(=N1)C(=O)OC(C)C(=O)NC2=CC=C(C=C2)OC" "pubchem cid=18091616" "chemspider=16896706" "InChI=InChI=1S/C18H21N3O5/c1-4-11-21-16(22)10-9-15(20-21)18(24)26-12(2)17(23)19-13-5-7-14(25-3)8-6-13/h5-10,12H,4,11H2,1-3H3,(H,19,23)" "computed SMILES=O=C(OC(C(=O)NC1=CC=C(OC)C=C1)C)C2=NN(C(=O)C=C2)CCC" "accession=SMI00161" "date=2012.08.31 (Created 2012.08.31)" "author=S. Neumann: IPB-Halle, Germany & E. Schymanski: Eawag, Switzerland" "license=CC BY" "copyright=CASMI2012" "publication=Schymanski, E.; Neumann, S. The Critical Assessment of Small Molecule Identification (CASMI): Challenges and Solutions. Metabolites 2013, 3 (3), 517â€“38. DOI:10.3390/metabo3030517" "comment=http://casmi-contest.org/challenges-cat1-2.shtml" "comment=CASMI2012 LC Challenge 16" "exact mass=359.1481" "ionization=APCI" "resolution=60000" "flow gradient=DIRECT INJECTION" "retention time=1.24 min" "computed spectral entropy=0.7884989477458529" "computed normalized entropy=0.7177226723922602" "SPLASH=splash10-00di-0900000000-7a54e5e74adb525a2016" "submitter=CASMI Team (UFZ, Eawag)" "MoNA Rating=2.8125"
Num Peaks: 3
123.0186 100.000000
141.0292 35.665858
155.0449 10.143003


Name: [1-(4-methoxyanilino)-1-oxopropan-2-yl] 6-oxo-1-propylpyridazine-3-carboxylate
Synon: $:00in-source
DB#: SMI00162
InChIKey: NFFNHGCVXXIUCW-UHFFFAOYSA-N
InChI: InChI=1S/C18H21N3O5/c1-4-11-21-16(22)10-9-15(20-21)18(24)26-12(2)17(23)19-13-5-7-14(25-3)8-6-13/h5-10,12H,4,11H2,1-3H3,(H,19,23)
Spectrum_type: MS2
PrecursorMZ: 155.05
Instrument_type: APCI-ITFT
Instrument: LTQ-Orbitrap
Ion_mode: P
Collision_energy: 75 CID
Formula: C18H21N3O5
MW: 359
ExactMass: 359.14812077199997
Comments: "SMILES=CCCN1C(=O)C=CC(=N1)C(=O)OC(C)C(=O)NC2=CC=C(C=C2)OC" "pubchem cid=18091616" "chemspider=16896706" "InChI=InChI=1S/C18H21N3O5/c1-4-11-21-16(22)10-9-15(20-21)18(24)26-12(2)17(23)19-13-5-7-14(25-3)8-6-13/h5-10,12H,4,11H2,1-3H3,(H,19,23)" "computed SMILES=O=C(OC(C(=O)NC1=CC=C(OC)C=C1)C)C2=NN(C(=O)C=C2)CCC" "accession=SMI00162" "date=2012.08.31 (Created 2012.08.31)" "author=S. Neumann: IPB-Halle, Germany & E. Schymanski: Eawag, Switzerland" "license=CC BY" "copyright=CASMI2012" "publication=Schymanski, E.; Neumann, S. The Critical Assessment of Small Molecule Identification (CASMI): Challenges and Solutions. Metabolites 2013, 3 (3), 517â€“38. DOI:10.3390/metabo3030517" "comment=http://casmi-contest.org/challenges-cat1-2.shtml" "comment=CASMI2012 LC Challenge 16" "exact mass=359.1481" "ionization=APCI" "resolution=60000" "flow gradient=DIRECT INJECTION" "retention time=1.24 min" "computed spectral entropy=1.5942530489953495" "computed normalized entropy=0.8192839991966311" "SPLASH=splash10-01ox-1900000000-778e0eede408a1e9237f" "submitter=CASMI Team (UFZ, Eawag)" "MoNA Rating=2.8125"
Num Peaks: 7
67.0285 24.924604
68.0125 3.260956
95.0236 13.578973
113.0342 97.300971
123.0186 40.724809
141.0292 100.000000
155.0449 24.379944


Name: [1-(4-methoxyanilino)-1-oxopropan-2-yl] 6-oxo-1-propylpyridazine-3-carboxylate
Synon: $:00in-source
DB#: SMI00163
InChIKey: NFFNHGCVXXIUCW-UHFFFAOYSA-N
InChI: InChI=1S/C18H21N3O5/c1-4-11-21-16(22)10-9-15(20-21)18(24)26-12(2)17(23)19-13-5-7-14(25-3)8-6-13/h5-10,12H,4,11H2,1-3H3,(H,19,23)
Spectrum_type: MS2
PrecursorMZ: 170.1
Instrument_type: APCI-ITFT
Instrument: LTQ-Orbitrap
Ion_mode: P
Collision_energy: 60 HCD
Formula: C18H21N3O5
MW: 359
ExactMass: 359.148120772
Comments: "SMILES=CCCN1C(=O)C=CC(=N1)C(=O)OC(C)C(=O)NC2=CC=C(C=C2)OC" "pubchem cid=18091616" "chemspider=16896706" "InChI=InChI=1S/C18H21N3O5/c1-4-11-21-16(22)10-9-15(20-21)18(24)26-12(2)17(23)19-13-5-7-14(25-3)8-6-13/h5-10,12H,4,11H2,1-3H3,(H,19,23)" "computed SMILES=O=C(OC(C(=O)NC1=CC=C(OC)C=C1)C)C2=NN(C(=O)C=C2)CCC" "accession=SMI00163" "date=2012.08.31 (Created 2012.08.31)" "author=S. Neumann: IPB-Halle, Germany & E. Schymanski: Eawag, Switzerland" "license=CC BY" "copyright=CASMI2012" "publication=Schymanski, E.; Neumann, S. The Critical Assessment of Small Molecule Identification (CASMI): Challenges and Solutions. Metabolites 2013, 3 (3), 517â€“38. DOI:10.3390/metabo3030517" "comment=http://casmi-contest.org/challenges-cat1-2.shtml" "comment=CASMI2012 LC Challenge 16" "exact mass=359.1481" "ionization=APCI" "resolution=60000" "flow gradient=DIRECT INJECTION" "retention time=1.55 min" "computed spectral entropy=0.7926405641359925" "computed normalized entropy=0.7214925340922058" "SPLASH=splash10-00di-3900000000-0140e772bde490d48fba" "submitter=CASMI Team (UFZ, Eawag)" "MoNA Rating=2.8125"
Num Peaks: 3
88.3474 20.246376
93.0569 19.318875
170.0963 100.000000


Name: [1-(4-methoxyanilino)-1-oxopropan-2-yl] 6-oxo-1-propylpyridazine-3-carboxylate
Synon: $:00in-source
DB#: SMI00164
InChIKey: NFFNHGCVXXIUCW-UHFFFAOYSA-N
InChI: InChI=1S/C18H21N3O5/c1-4-11-21-16(22)10-9-15(20-21)18(24)26-12(2)17(23)19-13-5-7-14(25-3)8-6-13/h5-10,12H,4,11H2,1-3H3,(H,19,23)
Spectrum_type: MS2
PrecursorMZ: 170.1
Instrument_type: APCI-ITFT
Instrument: LTQ-Orbitrap
Ion_mode: P
Collision_energy: 75 HCD
Formula: C18H21N3O5
MW: 359
ExactMass: 359.148120772
Comments: "SMILES=CCCN1C(=O)C=CC(=N1)C(=O)OC(C)C(=O)NC2=CC=C(C=C2)OC" "pubchem cid=18091616" "chemspider=16896706" "InChI=InChI=1S/C18H21N3O5/c1-4-11-21-16(22)10-9-15(20-21)18(24)26-12(2)17(23)19-13-5-7-14(25-3)8-6-13/h5-10,12H,4,11H2,1-3H3,(H,19,23)" "computed SMILES=O=C(OC(C(=O)NC1=CC=C(OC)C=C1)C)C2=NN(C(=O)C=C2)CCC" "accession=SMI00164" "date=2012.08.31 (Created 2012.08.31)" "author=S. Neumann: IPB-Halle, Germany & E. Schymanski: Eawag, Switzerland" "license=CC BY" "copyright=CASMI2012" "publication=Schymanski, E.; Neumann, S. The Critical Assessment of Small Molecule Identification (CASMI): Challenges and Solutions. Metabolites 2013, 3 (3), 517â€“38. DOI:10.3390/metabo3030517" "comment=http://casmi-contest.org/challenges-cat1-2.shtml" "comment=CASMI2012 LC Challenge 16" "exact mass=359.1481" "ionization=APCI" "resolution=60000" "flow gradient=DIRECT INJECTION" "retention time=1.55 min" "computed spectral entropy=1.0507974646411231" "computed normalized entropy=0.9564770715563773" "SPLASH=splash10-006x-9300000000-fcd9df6885352ae66561" "submitter=CASMI Team (UFZ, Eawag)" "MoNA Rating=2.8125"
Num Peaks: 3
88.3477 49.052241
93.0569 100.000000
170.0962 59.623597


Name: Nitrin
Synon: $:00in-source
DB#: SMI00171
InChIKey: LCPNCBSCOIMOBC-UHFFFAOYSA-N
InChI: InChI=1S/C13H13N3/c14-13-9-5-4-6-11(13)10-15-16-12-7-2-1-3-8-12/h1-10,16H,14H2
Precursor_type: [M+H]+
Spectrum_type: MS2
PrecursorMZ: 212.119
Instrument_type: LC-APCI-ITFT
Instrument: LTQ-Orbitrap
Ion_mode: P
Collision_energy: 35 CID
Formula: C13H13N3
MW: 211
ExactMass: 211.110947416
Comments: "SMILES=C1=CC=C(C=C1)NN=CC2=CC=CC=C2N" "pubchem cid=68380" "chemspider=61666" "InChI=InChI=1S/C13H13N3/c14-13-9-5-4-6-11(13)10-15-16-12-7-2-1-3-8-12/h1-10,16H,14H2" "computed SMILES=N(=CC=1C=CC=CC1N)NC=2C=CC=CC2" "computed InChI=InChI=1S/C13H13N3/c14-13-9-5-4-6-11(13)10-15-16-12-7-2-1-3-8-12/h1-10,16H,14H2/b15-10+" "accession=SMI00171" "date=2012.08.31 (Created 2012.08.31)" "author=S. Neumann: IPB-Halle, Germany & E. Schymanski: Eawag, Switzerland" "license=CC BY" "copyright=CASMI2012" "publication=Schymanski, E.; Neumann, S. The Critical Assessment of Small Molecule Identification (CASMI): Challenges and Solutions. Metabolites 2013, 3 (3), 517â€“38. DOI:10.3390/metabo3030517" "comment=http://casmi-contest.org/challenges-cat1-2.shtml" "comment=CASMI2012 LC Challenge 17" "exact mass=211.111" "ionization=APCI" "resolution=Low (ion trap)" "retention time=9.06 min" "computed spectral entropy=1.6000598442232878" "computed normalized entropy=0.8222681016387492" "computed mass accuracy=3.661077037048944" "computed mass error=7.76584000021785E-4" "SPLASH=splash10-000b-1900000000-26556f97071eda338d9f" "submitter=CASMI Team (UFZ, Eawag)" "MoNA Rating=4.615384615384616"
Num Peaks: 7
94.1667 28.242865
106.1667 18.392309
119.1667 16.253246
120.1667 7.903117
168.0833 11.483204
185.1667 50.648772
195.1667 100.000000


Name: Nitrin
Synon: $:00in-source
DB#: SMI00172
InChIKey: LCPNCBSCOIMOBC-UHFFFAOYSA-N
InChI: InChI=1S/C13H13N3/c14-13-9-5-4-6-11(13)10-15-16-12-7-2-1-3-8-12/h1-10,16H,14H2
Precursor_type: [M+H]+
Spectrum_type: MS2
PrecursorMZ: 212.119
Instrument_type: LC-APCI-ITFT
Instrument: LTQ-Orbitrap
Ion_mode: P
Collision_energy: 35 CID
Formula: C13H13N3
MW: 211
ExactMass: 211.110947416
Comments: "SMILES=C1=CC=C(C=C1)NN=CC2=CC=CC=C2N" "pubchem cid=68380" "chemspider=61666" "InChI=InChI=1S/C13H13N3/c14-13-9-5-4-6-11(13)10-15-16-12-7-2-1-3-8-12/h1-10,16H,14H2" "computed SMILES=N(=CC=1C=CC=CC1N)NC=2C=CC=CC2" "computed InChI=InChI=1S/C13H13N3/c14-13-9-5-4-6-11(13)10-15-16-12-7-2-1-3-8-12/h1-10,16H,14H2/b15-10+" "accession=SMI00172" "date=2012.08.31 (Created 2012.08.31)" "author=S. Neumann: IPB-Halle, Germany & E. Schymanski: Eawag, Switzerland" "license=CC BY" "copyright=CASMI2012" "publication=Schymanski, E.; Neumann, S. The Critical Assessment of Small Molecule Identification (CASMI): Challenges and Solutions. Metabolites 2013, 3 (3), 517â€“38. DOI:10.3390/metabo3030517" "comment=http://casmi-contest.org/challenges-cat1-2.shtml" "comment=CASMI2012 LC Challenge 17" "exact mass=211.111" "ionization=APCI" "resolution=7500" "retention time=9.06 min" "computed spectral entropy=2.3717567711090246" "computed normalized entropy=0.8055037947434251" "computed mass accuracy=3.661077037048944" "computed mass error=7.76584000021785E-4" "SPLASH=splash10-00kf-9600000000-de49cfbce5a3c9b5ddf2" "submitter=CASMI Team (UFZ, Eawag)" "MoNA Rating=4.615384615384616"
Num Peaks: 20
65.0378 68.049878
66.0456 3.717670
77.0379 5.646617
79.0535 3.274333
80.0487 6.422532
92.0489 97.442607
93.0567 100.000000
94.0643 9.176529
103.0411 2.621997
104.0488 3.135002
106.0646 58.144790
107.0598 4.143300
108.0439 36.741572
108.0678 6.347820
119.0600 26.140251
120.0678 22.170483
121.0756 6.520678
167.0729 28.015663
168.0810 13.500651
195.0917 8.223496

